\ LP format - for model browsing. Use MPS format to capture full model detail.
Minimize
  9999 e_0_0 + 500 e_0_1 + 900 e_0_2 + 450 e_0_3 + 400 e_0_4 + 1200 e_0_5
   + 950 e_0_6 + 850 e_0_7 + 1000 e_0_8 + 700 e_0_9 + 1000 e_0_10
   + 800 e_0_11 + 750 e_0_12 + 500 e_1_0 + 9999 e_1_1 + 400 e_1_2
   + 290 e_1_3 + 500 e_1_4 + 650 e_1_5 + 450 e_1_6 + 450 e_1_7 + 150 e_1_8
   + 600 e_1_9 + 500 e_1_10 + 550 e_1_11 + 400 e_1_12 + 900 e_2_0
   + 400 e_2_1 + 9999 e_2_2 + 450 e_2_3 + 900 e_2_4 + 260 e_2_5 + 230 e_2_6
   + 700 e_2_7 + 550 e_2_8 + 650 e_2_9 + 98 e_2_10 + 450 e_2_11
   + 260 e_2_12 + 450 e_3_0 + 290 e_3_1 + 450 e_3_2 + 9999 e_3_3
   + 600 e_3_4 + 700 e_3_5 + 600 e_3_6 + 750 e_3_7 + 950 e_3_8 + 350 e_3_9
   + 550 e_3_10 + 400 e_3_11 + 290 e_3_12 + 400 e_4_0 + 500 e_4_1
   + 900 e_4_2 + 600 e_4_3 + 9999 e_4_4 + 1200 e_4_5 + 950 e_4_6
   + 700 e_4_7 + 400 e_4_8 + 1000 e_4_9 + 1000 e_4_10 + 950 e_4_11
   + 750 e_4_12 + 1200 e_5_0 + 650 e_5_1 + 260 e_5_2 + 700 e_5_3
   + 1200 e_5_4 + 9999 e_5_5 + 300 e_5_6 + 800 e_5_7 + 800 e_5_8
   + 800 e_5_9 + 170 e_5_10 + 600 e_5_11 + 400 e_5_12 + 950 e_6_0
   + 450 e_6_1 + 230 e_6_2 + 600 e_6_3 + 950 e_6_4 + 300 e_6_5 + 9999 e_6_6
   + 450 e_6_7 + 550 e_6_8 + 850 e_6_9 + 290 e_6_10 + 700 e_6_11
   + 500 e_6_12 + 850 e_7_0 + 450 e_7_1 + 700 e_7_2 + 750 e_7_3 + 700 e_7_4
   + 800 e_7_5 + 450 e_7_6 + 9999 e_7_7 + 550 e_7_8 + 1100 e_7_9
   + 800 e_7_10 + 900 e_7_11 + 700 e_7_12 + 1000 e_8_0 + 150 e_8_1
   + 550 e_8_2 + 950 e_8_3 + 400 e_8_4 + 800 e_8_5 + 550 e_8_6 + 550 e_8_7
   + 9999 e_8_8 + 650 e_8_9 + 600 e_8_10 + 550 e_8_11 + 400 e_8_12
   + 700 e_9_0 + 600 e_9_1 + 650 e_9_2 + 350 e_9_3 + 1000 e_9_4 + 800 e_9_5
   + 850 e_9_6 + 1100 e_9_7 + 650 e_9_8 + 9999 e_9_9 + 650 e_9_10
   + 150 e_9_11 + 400 e_9_12 + 1000 e_10_0 + 500 e_10_1 + 98 e_10_2
   + 550 e_10_3 + 1000 e_10_4 + 170 e_10_5 + 290 e_10_6 + 800 e_10_7
   + 600 e_10_8 + 650 e_10_9 + 9999 e_10_10 + 500 e_10_11 + 280 e_10_12
   + 800 e_11_0 + 550 e_11_1 + 450 e_11_2 + 400 e_11_3 + 950 e_11_4
   + 600 e_11_5 + 700 e_11_6 + 900 e_11_7 + 550 e_11_8 + 150 e_11_9
   + 500 e_11_10 + 9999 e_11_11 + 210 e_11_12 + 750 e_12_0 + 400 e_12_1
   + 260 e_12_2 + 290 e_12_3 + 750 e_12_4 + 400 e_12_5 + 500 e_12_6
   + 700 e_12_7 + 400 e_12_8 + 400 e_12_9 + 280 e_12_10 + 210 e_12_11
   + 9999 e_12_12 + 0 u_0
Subject To
 R0: e_0_1 + e_0_2 + e_0_3 + e_0_4 + e_0_5 + e_0_6 + e_0_7 + e_0_8 + e_0_9
   + e_0_10 + e_0_11 + e_0_12 = 3
 R1: e_1_0 + e_2_0 + e_3_0 + e_4_0 + e_5_0 + e_6_0 + e_7_0 + e_8_0 + e_9_0
   + e_10_0 + e_11_0 + e_12_0 = 3
 R2: e_0_1 + e_1_1 + e_2_1 + e_3_1 + e_4_1 + e_5_1 + e_6_1 + e_7_1 + e_8_1
   + e_9_1 + e_10_1 + e_11_1 + e_12_1 = 1
 R3: e_0_2 + e_1_2 + e_2_2 + e_3_2 + e_4_2 + e_5_2 + e_6_2 + e_7_2 + e_8_2
   + e_9_2 + e_10_2 + e_11_2 + e_12_2 = 1
 R4: e_0_3 + e_1_3 + e_2_3 + e_3_3 + e_4_3 + e_5_3 + e_6_3 + e_7_3 + e_8_3
   + e_9_3 + e_10_3 + e_11_3 + e_12_3 = 1
 R5: e_0_4 + e_1_4 + e_2_4 + e_3_4 + e_4_4 + e_5_4 + e_6_4 + e_7_4 + e_8_4
   + e_9_4 + e_10_4 + e_11_4 + e_12_4 = 1
 R6: e_0_5 + e_1_5 + e_2_5 + e_3_5 + e_4_5 + e_5_5 + e_6_5 + e_7_5 + e_8_5
   + e_9_5 + e_10_5 + e_11_5 + e_12_5 = 1
 R7: e_0_6 + e_1_6 + e_2_6 + e_3_6 + e_4_6 + e_5_6 + e_6_6 + e_7_6 + e_8_6
   + e_9_6 + e_10_6 + e_11_6 + e_12_6 = 1
 R8: e_0_7 + e_1_7 + e_2_7 + e_3_7 + e_4_7 + e_5_7 + e_6_7 + e_7_7 + e_8_7
   + e_9_7 + e_10_7 + e_11_7 + e_12_7 = 1
 R9: e_0_8 + e_1_8 + e_2_8 + e_3_8 + e_4_8 + e_5_8 + e_6_8 + e_7_8 + e_8_8
   + e_9_8 + e_10_8 + e_11_8 + e_12_8 = 1
 R10: e_0_9 + e_1_9 + e_2_9 + e_3_9 + e_4_9 + e_5_9 + e_6_9 + e_7_9 + e_8_9
   + e_9_9 + e_10_9 + e_11_9 + e_12_9 = 1
 R11: e_0_10 + e_1_10 + e_2_10 + e_3_10 + e_4_10 + e_5_10 + e_6_10 + e_7_10
   + e_8_10 + e_9_10 + e_10_10 + e_11_10 + e_12_10 = 1
 R12: e_0_11 + e_1_11 + e_2_11 + e_3_11 + e_4_11 + e_5_11 + e_6_11 + e_7_11
   + e_8_11 + e_9_11 + e_10_11 + e_11_11 + e_12_11 = 1
 R13: e_0_12 + e_1_12 + e_2_12 + e_3_12 + e_4_12 + e_5_12 + e_6_12 + e_7_12
   + e_8_12 + e_9_12 + e_10_12 + e_11_12 + e_12_12 = 1
 R14: e_1_0 + e_1_1 + e_1_2 + e_1_3 + e_1_4 + e_1_5 + e_1_6 + e_1_7 + e_1_8
   + e_1_9 + e_1_10 + e_1_11 + e_1_12 = 1
 R15: e_2_0 + e_2_1 + e_2_2 + e_2_3 + e_2_4 + e_2_5 + e_2_6 + e_2_7 + e_2_8
   + e_2_9 + e_2_10 + e_2_11 + e_2_12 = 1
 R16: e_3_0 + e_3_1 + e_3_2 + e_3_3 + e_3_4 + e_3_5 + e_3_6 + e_3_7 + e_3_8
   + e_3_9 + e_3_10 + e_3_11 + e_3_12 = 1
 R17: e_4_0 + e_4_1 + e_4_2 + e_4_3 + e_4_4 + e_4_5 + e_4_6 + e_4_7 + e_4_8
   + e_4_9 + e_4_10 + e_4_11 + e_4_12 = 1
 R18: e_5_0 + e_5_1 + e_5_2 + e_5_3 + e_5_4 + e_5_5 + e_5_6 + e_5_7 + e_5_8
   + e_5_9 + e_5_10 + e_5_11 + e_5_12 = 1
 R19: e_6_0 + e_6_1 + e_6_2 + e_6_3 + e_6_4 + e_6_5 + e_6_6 + e_6_7 + e_6_8
   + e_6_9 + e_6_10 + e_6_11 + e_6_12 = 1
 R20: e_7_0 + e_7_1 + e_7_2 + e_7_3 + e_7_4 + e_7_5 + e_7_6 + e_7_7 + e_7_8
   + e_7_9 + e_7_10 + e_7_11 + e_7_12 = 1
 R21: e_8_0 + e_8_1 + e_8_2 + e_8_3 + e_8_4 + e_8_5 + e_8_6 + e_8_7 + e_8_8
   + e_8_9 + e_8_10 + e_8_11 + e_8_12 = 1
 R22: e_9_0 + e_9_1 + e_9_2 + e_9_3 + e_9_4 + e_9_5 + e_9_6 + e_9_7 + e_9_8
   + e_9_9 + e_9_10 + e_9_11 + e_9_12 = 1
 R23: e_10_0 + e_10_1 + e_10_2 + e_10_3 + e_10_4 + e_10_5 + e_10_6 + e_10_7
   + e_10_8 + e_10_9 + e_10_10 + e_10_11 + e_10_12 = 1
 R24: e_11_0 + e_11_1 + e_11_2 + e_11_3 + e_11_4 + e_11_5 + e_11_6 + e_11_7
   + e_11_8 + e_11_9 + e_11_10 + e_11_11 + e_11_12 = 1
 R25: e_12_0 + e_12_1 + e_12_2 + e_12_3 + e_12_4 + e_12_5 + e_12_6 + e_12_7
   + e_12_8 + e_12_9 + e_12_10 + e_12_11 + e_12_12 = 1
 R26: 3 e_0_1 - e_1_0 + u_1 <= 4
 R27: 3 e_0_2 - e_2_0 + u_2 <= 4
 R28: 3 e_0_3 - e_3_0 + u_3 <= 4
 R29: 3 e_0_4 - e_4_0 + u_4 <= 4
 R30: 3 e_0_5 - e_5_0 + u_5 <= 4
 R31: 3 e_0_6 - e_6_0 + u_6 <= 4
 R32: 3 e_0_7 - e_7_0 + u_7 <= 4
 R33: 3 e_0_8 - e_8_0 + u_8 <= 4
 R34: 3 e_0_9 - e_9_0 + u_9 <= 4
 R35: 3 e_0_10 - e_10_0 + u_10 <= 4
 R36: 3 e_0_11 - e_11_0 + u_11 <= 4
 R37: 3 e_0_12 - e_12_0 + u_12 <= 4
 R38: e_0_1 + 2 e_1_0 + u_1 >= 2
 R39: e_0_2 + 2 e_2_0 + u_2 >= 2
 R40: e_0_3 + 2 e_3_0 + u_3 >= 2
 R41: e_0_4 + 2 e_4_0 + u_4 >= 2
 R42: e_0_5 + 2 e_5_0 + u_5 >= 2
 R43: e_0_6 + 2 e_6_0 + u_6 >= 2
 R44: e_0_7 + 2 e_7_0 + u_7 >= 2
 R45: e_0_8 + 2 e_8_0 + u_8 >= 2
 R46: e_0_9 + 2 e_9_0 + u_9 >= 2
 R47: e_0_10 + 2 e_10_0 + u_10 >= 2
 R48: e_0_11 + 2 e_11_0 + u_11 >= 2
 R49: e_0_12 + 2 e_12_0 + u_12 >= 2
 R50: e_0_1 + e_1_0 <= 1
 R51: e_0_2 + e_2_0 <= 1
 R52: e_0_3 + e_3_0 <= 1
 R53: e_0_4 + e_4_0 <= 1
 R54: e_0_5 + e_5_0 <= 1
 R55: e_0_6 + e_6_0 <= 1
 R56: e_0_7 + e_7_0 <= 1
 R57: e_0_8 + e_8_0 <= 1
 R58: e_0_9 + e_9_0 <= 1
 R59: e_0_10 + e_10_0 <= 1
 R60: e_0_11 + e_11_0 <= 1
 R61: e_0_12 + e_12_0 <= 1
 R62: 5 e_1_2 + 3 e_2_1 + u_1 - u_2 <= 4
 R63: 5 e_1_3 + 3 e_3_1 + u_1 - u_3 <= 4
 R64: 5 e_1_4 + 3 e_4_1 + u_1 - u_4 <= 4
 R65: 5 e_1_5 + 3 e_5_1 + u_1 - u_5 <= 4
 R66: 5 e_1_6 + 3 e_6_1 + u_1 - u_6 <= 4
 R67: 5 e_1_7 + 3 e_7_1 + u_1 - u_7 <= 4
 R68: 5 e_1_8 + 3 e_8_1 + u_1 - u_8 <= 4
 R69: 5 e_1_9 + 3 e_9_1 + u_1 - u_9 <= 4
 R70: 5 e_1_10 + 3 e_10_1 + u_1 - u_10 <= 4
 R71: 5 e_1_11 + 3 e_11_1 + u_1 - u_11 <= 4
 R72: 5 e_1_12 + 3 e_12_1 + u_1 - u_12 <= 4
 R73: 3 e_1_2 + 5 e_2_1 - u_1 + u_2 <= 4
 R74: 5 e_2_3 + 3 e_3_2 + u_2 - u_3 <= 4
 R75: 5 e_2_4 + 3 e_4_2 + u_2 - u_4 <= 4
 R76: 5 e_2_5 + 3 e_5_2 + u_2 - u_5 <= 4
 R77: 5 e_2_6 + 3 e_6_2 + u_2 - u_6 <= 4
 R78: 5 e_2_7 + 3 e_7_2 + u_2 - u_7 <= 4
 R79: 5 e_2_8 + 3 e_8_2 + u_2 - u_8 <= 4
 R80: 5 e_2_9 + 3 e_9_2 + u_2 - u_9 <= 4
 R81: 5 e_2_10 + 3 e_10_2 + u_2 - u_10 <= 4
 R82: 5 e_2_11 + 3 e_11_2 + u_2 - u_11 <= 4
 R83: 5 e_2_12 + 3 e_12_2 + u_2 - u_12 <= 4
 R84: 3 e_1_3 + 5 e_3_1 - u_1 + u_3 <= 4
 R85: 3 e_2_3 + 5 e_3_2 - u_2 + u_3 <= 4
 R86: 5 e_3_4 + 3 e_4_3 + u_3 - u_4 <= 4
 R87: 5 e_3_5 + 3 e_5_3 + u_3 - u_5 <= 4
 R88: 5 e_3_6 + 3 e_6_3 + u_3 - u_6 <= 4
 R89: 5 e_3_7 + 3 e_7_3 + u_3 - u_7 <= 4
 R90: 5 e_3_8 + 3 e_8_3 + u_3 - u_8 <= 4
 R91: 5 e_3_9 + 3 e_9_3 + u_3 - u_9 <= 4
 R92: 5 e_3_10 + 3 e_10_3 + u_3 - u_10 <= 4
 R93: 5 e_3_11 + 3 e_11_3 + u_3 - u_11 <= 4
 R94: 5 e_3_12 + 3 e_12_3 + u_3 - u_12 <= 4
 R95: 3 e_1_4 + 5 e_4_1 - u_1 + u_4 <= 4
 R96: 3 e_2_4 + 5 e_4_2 - u_2 + u_4 <= 4
 R97: 3 e_3_4 + 5 e_4_3 - u_3 + u_4 <= 4
 R98: 5 e_4_5 + 3 e_5_4 + u_4 - u_5 <= 4
 R99: 5 e_4_6 + 3 e_6_4 + u_4 - u_6 <= 4
 R100: 5 e_4_7 + 3 e_7_4 + u_4 - u_7 <= 4
 R101: 5 e_4_8 + 3 e_8_4 + u_4 - u_8 <= 4
 R102: 5 e_4_9 + 3 e_9_4 + u_4 - u_9 <= 4
 R103: 5 e_4_10 + 3 e_10_4 + u_4 - u_10 <= 4
 R104: 5 e_4_11 + 3 e_11_4 + u_4 - u_11 <= 4
 R105: 5 e_4_12 + 3 e_12_4 + u_4 - u_12 <= 4
 R106: 3 e_1_5 + 5 e_5_1 - u_1 + u_5 <= 4
 R107: 3 e_2_5 + 5 e_5_2 - u_2 + u_5 <= 4
 R108: 3 e_3_5 + 5 e_5_3 - u_3 + u_5 <= 4
 R109: 3 e_4_5 + 5 e_5_4 - u_4 + u_5 <= 4
 R110: 5 e_5_6 + 3 e_6_5 + u_5 - u_6 <= 4
 R111: 5 e_5_7 + 3 e_7_5 + u_5 - u_7 <= 4
 R112: 5 e_5_8 + 3 e_8_5 + u_5 - u_8 <= 4
 R113: 5 e_5_9 + 3 e_9_5 + u_5 - u_9 <= 4
 R114: 5 e_5_10 + 3 e_10_5 + u_5 - u_10 <= 4
 R115: 5 e_5_11 + 3 e_11_5 + u_5 - u_11 <= 4
 R116: 5 e_5_12 + 3 e_12_5 + u_5 - u_12 <= 4
 R117: 3 e_1_6 + 5 e_6_1 - u_1 + u_6 <= 4
 R118: 3 e_2_6 + 5 e_6_2 - u_2 + u_6 <= 4
 R119: 3 e_3_6 + 5 e_6_3 - u_3 + u_6 <= 4
 R120: 3 e_4_6 + 5 e_6_4 - u_4 + u_6 <= 4
 R121: 3 e_5_6 + 5 e_6_5 - u_5 + u_6 <= 4
 R122: 5 e_6_7 + 3 e_7_6 + u_6 - u_7 <= 4
 R123: 5 e_6_8 + 3 e_8_6 + u_6 - u_8 <= 4
 R124: 5 e_6_9 + 3 e_9_6 + u_6 - u_9 <= 4
 R125: 5 e_6_10 + 3 e_10_6 + u_6 - u_10 <= 4
 R126: 5 e_6_11 + 3 e_11_6 + u_6 - u_11 <= 4
 R127: 5 e_6_12 + 3 e_12_6 + u_6 - u_12 <= 4
 R128: 3 e_1_7 + 5 e_7_1 - u_1 + u_7 <= 4
 R129: 3 e_2_7 + 5 e_7_2 - u_2 + u_7 <= 4
 R130: 3 e_3_7 + 5 e_7_3 - u_3 + u_7 <= 4
 R131: 3 e_4_7 + 5 e_7_4 - u_4 + u_7 <= 4
 R132: 3 e_5_7 + 5 e_7_5 - u_5 + u_7 <= 4
 R133: 3 e_6_7 + 5 e_7_6 - u_6 + u_7 <= 4
 R134: 5 e_7_8 + 3 e_8_7 + u_7 - u_8 <= 4
 R135: 5 e_7_9 + 3 e_9_7 + u_7 - u_9 <= 4
 R136: 5 e_7_10 + 3 e_10_7 + u_7 - u_10 <= 4
 R137: 5 e_7_11 + 3 e_11_7 + u_7 - u_11 <= 4
 R138: 5 e_7_12 + 3 e_12_7 + u_7 - u_12 <= 4
 R139: 3 e_1_8 + 5 e_8_1 - u_1 + u_8 <= 4
 R140: 3 e_2_8 + 5 e_8_2 - u_2 + u_8 <= 4
 R141: 3 e_3_8 + 5 e_8_3 - u_3 + u_8 <= 4
 R142: 3 e_4_8 + 5 e_8_4 - u_4 + u_8 <= 4
 R143: 3 e_5_8 + 5 e_8_5 - u_5 + u_8 <= 4
 R144: 3 e_6_8 + 5 e_8_6 - u_6 + u_8 <= 4
 R145: 3 e_7_8 + 5 e_8_7 - u_7 + u_8 <= 4
 R146: 5 e_8_9 + 3 e_9_8 + u_8 - u_9 <= 4
 R147: 5 e_8_10 + 3 e_10_8 + u_8 - u_10 <= 4
 R148: 5 e_8_11 + 3 e_11_8 + u_8 - u_11 <= 4
 R149: 5 e_8_12 + 3 e_12_8 + u_8 - u_12 <= 4
 R150: 3 e_1_9 + 5 e_9_1 - u_1 + u_9 <= 4
 R151: 3 e_2_9 + 5 e_9_2 - u_2 + u_9 <= 4
 R152: 3 e_3_9 + 5 e_9_3 - u_3 + u_9 <= 4
 R153: 3 e_4_9 + 5 e_9_4 - u_4 + u_9 <= 4
 R154: 3 e_5_9 + 5 e_9_5 - u_5 + u_9 <= 4
 R155: 3 e_6_9 + 5 e_9_6 - u_6 + u_9 <= 4
 R156: 3 e_7_9 + 5 e_9_7 - u_7 + u_9 <= 4
 R157: 3 e_8_9 + 5 e_9_8 - u_8 + u_9 <= 4
 R158: 5 e_9_10 + 3 e_10_9 + u_9 - u_10 <= 4
 R159: 5 e_9_11 + 3 e_11_9 + u_9 - u_11 <= 4
 R160: 5 e_9_12 + 3 e_12_9 + u_9 - u_12 <= 4
 R161: 3 e_1_10 + 5 e_10_1 - u_1 + u_10 <= 4
 R162: 3 e_2_10 + 5 e_10_2 - u_2 + u_10 <= 4
 R163: 3 e_3_10 + 5 e_10_3 - u_3 + u_10 <= 4
 R164: 3 e_4_10 + 5 e_10_4 - u_4 + u_10 <= 4
 R165: 3 e_5_10 + 5 e_10_5 - u_5 + u_10 <= 4
 R166: 3 e_6_10 + 5 e_10_6 - u_6 + u_10 <= 4
 R167: 3 e_7_10 + 5 e_10_7 - u_7 + u_10 <= 4
 R168: 3 e_8_10 + 5 e_10_8 - u_8 + u_10 <= 4
 R169: 3 e_9_10 + 5 e_10_9 - u_9 + u_10 <= 4
 R170: 5 e_10_11 + 3 e_11_10 + u_10 - u_11 <= 4
 R171: 5 e_10_12 + 3 e_12_10 + u_10 - u_12 <= 4
 R172: 3 e_1_11 + 5 e_11_1 - u_1 + u_11 <= 4
 R173: 3 e_2_11 + 5 e_11_2 - u_2 + u_11 <= 4
 R174: 3 e_3_11 + 5 e_11_3 - u_3 + u_11 <= 4
 R175: 3 e_4_11 + 5 e_11_4 - u_4 + u_11 <= 4
 R176: 3 e_5_11 + 5 e_11_5 - u_5 + u_11 <= 4
 R177: 3 e_6_11 + 5 e_11_6 - u_6 + u_11 <= 4
 R178: 3 e_7_11 + 5 e_11_7 - u_7 + u_11 <= 4
 R179: 3 e_8_11 + 5 e_11_8 - u_8 + u_11 <= 4
 R180: 3 e_9_11 + 5 e_11_9 - u_9 + u_11 <= 4
 R181: 3 e_10_11 + 5 e_11_10 - u_10 + u_11 <= 4
 R182: 5 e_11_12 + 3 e_12_11 + u_11 - u_12 <= 4
 R183: 3 e_1_12 + 5 e_12_1 - u_1 + u_12 <= 4
 R184: 3 e_2_12 + 5 e_12_2 - u_2 + u_12 <= 4
 R185: 3 e_3_12 + 5 e_12_3 - u_3 + u_12 <= 4
 R186: 3 e_4_12 + 5 e_12_4 - u_4 + u_12 <= 4
 R187: 3 e_5_12 + 5 e_12_5 - u_5 + u_12 <= 4
 R188: 3 e_6_12 + 5 e_12_6 - u_6 + u_12 <= 4
 R189: 3 e_7_12 + 5 e_12_7 - u_7 + u_12 <= 4
 R190: 3 e_8_12 + 5 e_12_8 - u_8 + u_12 <= 4
 R191: 3 e_9_12 + 5 e_12_9 - u_9 + u_12 <= 4
 R192: 3 e_10_12 + 5 e_12_10 - u_10 + u_12 <= 4
 R193: 3 e_11_12 + 5 e_12_11 - u_11 + u_12 <= 4
Bounds
Binaries
 e_0_0 e_0_1 e_0_2 e_0_3 e_0_4 e_0_5 e_0_6 e_0_7 e_0_8 e_0_9 e_0_10 e_0_11
 e_0_12 e_1_0 e_1_1 e_1_2 e_1_3 e_1_4 e_1_5 e_1_6 e_1_7 e_1_8 e_1_9 e_1_10
 e_1_11 e_1_12 e_2_0 e_2_1 e_2_2 e_2_3 e_2_4 e_2_5 e_2_6 e_2_7 e_2_8 e_2_9
 e_2_10 e_2_11 e_2_12 e_3_0 e_3_1 e_3_2 e_3_3 e_3_4 e_3_5 e_3_6 e_3_7 e_3_8
 e_3_9 e_3_10 e_3_11 e_3_12 e_4_0 e_4_1 e_4_2 e_4_3 e_4_4 e_4_5 e_4_6 e_4_7
 e_4_8 e_4_9 e_4_10 e_4_11 e_4_12 e_5_0 e_5_1 e_5_2 e_5_3 e_5_4 e_5_5 e_5_6
 e_5_7 e_5_8 e_5_9 e_5_10 e_5_11 e_5_12 e_6_0 e_6_1 e_6_2 e_6_3 e_6_4 e_6_5
 e_6_6 e_6_7 e_6_8 e_6_9 e_6_10 e_6_11 e_6_12 e_7_0 e_7_1 e_7_2 e_7_3 e_7_4
 e_7_5 e_7_6 e_7_7 e_7_8 e_7_9 e_7_10 e_7_11 e_7_12 e_8_0 e_8_1 e_8_2 e_8_3
 e_8_4 e_8_5 e_8_6 e_8_7 e_8_8 e_8_9 e_8_10 e_8_11 e_8_12 e_9_0 e_9_1 e_9_2
 e_9_3 e_9_4 e_9_5 e_9_6 e_9_7 e_9_8 e_9_9 e_9_10 e_9_11 e_9_12 e_10_0
 e_10_1 e_10_2 e_10_3 e_10_4 e_10_5 e_10_6 e_10_7 e_10_8 e_10_9 e_10_10
 e_10_11 e_10_12 e_11_0 e_11_1 e_11_2 e_11_3 e_11_4 e_11_5 e_11_6 e_11_7
 e_11_8 e_11_9 e_11_10 e_11_11 e_11_12 e_12_0 e_12_1 e_12_2 e_12_3 e_12_4
 e_12_5 e_12_6 e_12_7 e_12_8 e_12_9 e_12_10 e_12_11 e_12_12
Generals
 u_0 u_1 u_2 u_3 u_4 u_5 u_6 u_7 u_8 u_9 u_10 u_11 u_12
End
